NAME : optical-integer.pruned_local_8.0.tour
COMMENT : Length = 0
TYPE : TOUR
DIMENSION : 174
TOUR_SECTION
1
3
4
6
9
12
14
16
18
20
22
24
26
25
23
21
19
17
15
13
11
8
5
37
38
36
35
34
33
32
31
30
29
28
27
169
76
174
75
77
78
79
80
81
82
83
85
84
135
95
98
106
110
118
117
120
121
122
128
126
123
125
124
130
129
172
171
170
165
168
167
166
161
162
164
160
163
159
158
155
157
156
154
153
152
151
150
149
148
144
146
145
143
147
142
141
140
139
138
137
133
134
132
127
116
119
115
114
102
113
103
108
101
112
100
111
105
109
107
104
96
94
93
92
91
131
10
136
59
48
44
46
45
97
47
49
50
52
53
51
88
90
89
87
86
54
55
57
60
62
64
66
68
70
72
74
73
71
69
67
65
63
61
58
56
173
7
99
42
43
41
40
39
2
-1
EOF
